p cnf 512 2344
c p weight 208 0 0
c p weight -208 1 0
c p weight 209 1 0
c p weight -209 1 0
c p weight 509 -1 0
c p weight -509 1 0
c p weight 512 0.5 0
512 0
-203 0
-201 0
-199 0
-197 0
-195 0
-193 0
-191 0
-189 0
-187 0
-185 0
-183 0
-181 0
-179 0
-177 0
-175 0
-173 0
-171 0
-169 0
-167 0
-165 0
-163 0
-161 0
-159 0
-157 0
-155 0
-153 0
-151 0
-149 0
-147 0
-145 0
-143 0
-141 0
-139 0
-137 0
-135 0
-133 0
-131 0
-129 0
-127 0
-125 0
-123 0
-121 0
-119 0
-117 0
-115 0
-113 0
-111 0
-109 0
-107 0
-105 0
-103 0
-101 0
-99 0
-97 0
-95 0
-93 0
-91 0
-89 0
-87 0
-85 0
-83 0
-81 0
-79 0
-77 0
-75 0
-73 0
-71 0
-69 0
-67 0
-65 0
-63 0
-61 0
-59 0
-57 0
-55 0
-53 0
-51 0
-49 0
-47 0
-45 0
-43 0
-41 0
-39 0
-37 0
-35 0
-33 0
-31 0
-29 0
-27 0
-25 0
-23 0
-21 0
-19 0
-17 0
-15 0
-13 0
-11 0
-9 0
-7 0
-5 0
-3 0
-1 0
204 -203 201 0
204 -203 202 0
-204 203 201 0
-204 203 202 0
204 203 -201 -202 0
-204 -203 -201 -202 0
205 201 -202 0
205 -201 202 0
-205 201 202 0
-205 -201 -202 0
206 207 -204 0
206 -204 205 0
-206 207 204 0
-206 204 205 0
206 -204 -201 0
-206 204 -201 0
206 -207 204 201 -205 0
-206 -207 -204 201 -205 0
207 -201 205 0
-207 201 205 0
-208 205 0
207 -208 -201 0
-207 -208 201 0
207 208 201 -205 0
-207 208 -201 -205 0
-209 205 0
207 -209 201 0
-207 -209 -201 0
207 209 -201 -205 0
-207 209 201 -205 0
210 -206 207 0
210 -206 205 0
-210 206 207 0
-210 206 205 0
210 206 -207 -205 0
-210 -206 -207 -205 0
211 207 -205 0
211 -207 205 0
-211 207 205 0
-211 -207 -205 0
212 -210 207 0
212 -210 200 0
-212 210 207 0
-212 210 200 0
212 -210 199 -211 0
212 -210 -199 211 0
-212 210 199 -211 0
-212 210 -199 211 0
212 210 -207 199 211 -200 0
212 210 -207 -199 -211 -200 0
-212 -210 -207 199 211 -200 0
-212 -210 -207 -199 -211 -200 0
214 207 -199 0
214 -207 199 0
-214 207 199 0
-214 -207 -199 0
213 211 -200 0
213 -211 200 0
-213 211 200 0
-213 -211 -200 0
215 -212 214 0
215 -212 198 0
-215 212 214 0
-215 212 198 0
215 -212 197 -200 0
215 -212 -197 200 0
-215 212 197 -200 0
-215 212 -197 200 0
215 212 -214 197 200 -198 0
215 212 -214 -197 -200 -198 0
-215 -212 -214 197 200 -198 0
-215 -212 -214 -197 -200 -198 0
217 214 -197 0
217 -214 197 0
-217 214 197 0
-217 -214 -197 0
216 200 -198 0
216 -200 198 0
-216 200 198 0
-216 -200 -198 0
218 -215 217 0
218 -215 196 0
-218 215 217 0
-218 215 196 0
218 -215 195 -198 0
218 -215 -195 198 0
-218 215 195 -198 0
-218 215 -195 198 0
218 215 -217 195 198 -196 0
218 215 -217 -195 -198 -196 0
-218 -215 -217 195 198 -196 0
-218 -215 -217 -195 -198 -196 0
220 217 -195 0
220 -217 195 0
-220 217 195 0
-220 -217 -195 0
219 198 -196 0
219 -198 196 0
-219 198 196 0
-219 -198 -196 0
221 -218 220 0
221 -218 194 0
-221 218 220 0
-221 218 194 0
221 -218 193 -196 0
221 -218 -193 196 0
-221 218 193 -196 0
-221 218 -193 196 0
221 218 -220 193 196 -194 0
221 218 -220 -193 -196 -194 0
-221 -218 -220 193 196 -194 0
-221 -218 -220 -193 -196 -194 0
223 220 -193 0
223 -220 193 0
-223 220 193 0
-223 -220 -193 0
222 196 -194 0
222 -196 194 0
-222 196 194 0
-222 -196 -194 0
224 -221 223 0
224 -221 192 0
-224 221 223 0
-224 221 192 0
224 -221 191 -194 0
224 -221 -191 194 0
-224 221 191 -194 0
-224 221 -191 194 0
224 221 -223 191 194 -192 0
224 221 -223 -191 -194 -192 0
-224 -221 -223 191 194 -192 0
-224 -221 -223 -191 -194 -192 0
226 223 -191 0
226 -223 191 0
-226 223 191 0
-226 -223 -191 0
225 194 -192 0
225 -194 192 0
-225 194 192 0
-225 -194 -192 0
227 -224 226 0
227 -224 190 0
-227 224 226 0
-227 224 190 0
227 -224 189 -192 0
227 -224 -189 192 0
-227 224 189 -192 0
-227 224 -189 192 0
227 224 -226 189 192 -190 0
227 224 -226 -189 -192 -190 0
-227 -224 -226 189 192 -190 0
-227 -224 -226 -189 -192 -190 0
229 226 -189 0
229 -226 189 0
-229 226 189 0
-229 -226 -189 0
228 192 -190 0
228 -192 190 0
-228 192 190 0
-228 -192 -190 0
230 -227 229 0
230 -227 188 0
-230 227 229 0
-230 227 188 0
230 -227 187 -190 0
230 -227 -187 190 0
-230 227 187 -190 0
-230 227 -187 190 0
230 227 -229 187 190 -188 0
230 227 -229 -187 -190 -188 0
-230 -227 -229 187 190 -188 0
-230 -227 -229 -187 -190 -188 0
232 229 -187 0
232 -229 187 0
-232 229 187 0
-232 -229 -187 0
231 190 -188 0
231 -190 188 0
-231 190 188 0
-231 -190 -188 0
233 -230 232 0
233 -230 186 0
-233 230 232 0
-233 230 186 0
233 -230 185 -188 0
233 -230 -185 188 0
-233 230 185 -188 0
-233 230 -185 188 0
233 230 -232 185 188 -186 0
233 230 -232 -185 -188 -186 0
-233 -230 -232 185 188 -186 0
-233 -230 -232 -185 -188 -186 0
235 232 -185 0
235 -232 185 0
-235 232 185 0
-235 -232 -185 0
234 188 -186 0
234 -188 186 0
-234 188 186 0
-234 -188 -186 0
236 -233 235 0
236 -233 184 0
-236 233 235 0
-236 233 184 0
236 -233 183 -186 0
236 -233 -183 186 0
-236 233 183 -186 0
-236 233 -183 186 0
236 233 -235 183 186 -184 0
236 233 -235 -183 -186 -184 0
-236 -233 -235 183 186 -184 0
-236 -233 -235 -183 -186 -184 0
238 235 -183 0
238 -235 183 0
-238 235 183 0
-238 -235 -183 0
237 186 -184 0
237 -186 184 0
-237 186 184 0
-237 -186 -184 0
239 -236 238 0
239 -236 182 0
-239 236 238 0
-239 236 182 0
239 -236 181 -184 0
239 -236 -181 184 0
-239 236 181 -184 0
-239 236 -181 184 0
239 236 -238 181 184 -182 0
239 236 -238 -181 -184 -182 0
-239 -236 -238 181 184 -182 0
-239 -236 -238 -181 -184 -182 0
241 238 -181 0
241 -238 181 0
-241 238 181 0
-241 -238 -181 0
240 184 -182 0
240 -184 182 0
-240 184 182 0
-240 -184 -182 0
242 -239 241 0
242 -239 180 0
-242 239 241 0
-242 239 180 0
242 -239 179 -182 0
242 -239 -179 182 0
-242 239 179 -182 0
-242 239 -179 182 0
242 239 -241 179 182 -180 0
242 239 -241 -179 -182 -180 0
-242 -239 -241 179 182 -180 0
-242 -239 -241 -179 -182 -180 0
244 241 -179 0
244 -241 179 0
-244 241 179 0
-244 -241 -179 0
243 182 -180 0
243 -182 180 0
-243 182 180 0
-243 -182 -180 0
245 -242 244 0
245 -242 178 0
-245 242 244 0
-245 242 178 0
245 -242 177 -180 0
245 -242 -177 180 0
-245 242 177 -180 0
-245 242 -177 180 0
245 242 -244 177 180 -178 0
245 242 -244 -177 -180 -178 0
-245 -242 -244 177 180 -178 0
-245 -242 -244 -177 -180 -178 0
247 244 -177 0
247 -244 177 0
-247 244 177 0
-247 -244 -177 0
246 180 -178 0
246 -180 178 0
-246 180 178 0
-246 -180 -178 0
248 -245 247 0
248 -245 176 0
-248 245 247 0
-248 245 176 0
248 -245 175 -178 0
248 -245 -175 178 0
-248 245 175 -178 0
-248 245 -175 178 0
248 245 -247 175 178 -176 0
248 245 -247 -175 -178 -176 0
-248 -245 -247 175 178 -176 0
-248 -245 -247 -175 -178 -176 0
250 247 -175 0
250 -247 175 0
-250 247 175 0
-250 -247 -175 0
249 178 -176 0
249 -178 176 0
-249 178 176 0
-249 -178 -176 0
251 -248 250 0
251 -248 174 0
-251 248 250 0
-251 248 174 0
251 -248 173 -176 0
251 -248 -173 176 0
-251 248 173 -176 0
-251 248 -173 176 0
251 248 -250 173 176 -174 0
251 248 -250 -173 -176 -174 0
-251 -248 -250 173 176 -174 0
-251 -248 -250 -173 -176 -174 0
253 250 -173 0
253 -250 173 0
-253 250 173 0
-253 -250 -173 0
252 176 -174 0
252 -176 174 0
-252 176 174 0
-252 -176 -174 0
254 -251 253 0
254 -251 172 0
-254 251 253 0
-254 251 172 0
254 -251 171 -174 0
254 -251 -171 174 0
-254 251 171 -174 0
-254 251 -171 174 0
254 251 -253 171 174 -172 0
254 251 -253 -171 -174 -172 0
-254 -251 -253 171 174 -172 0
-254 -251 -253 -171 -174 -172 0
256 253 -171 0
256 -253 171 0
-256 253 171 0
-256 -253 -171 0
255 174 -172 0
255 -174 172 0
-255 174 172 0
-255 -174 -172 0
257 -254 256 0
257 -254 170 0
-257 254 256 0
-257 254 170 0
257 -254 169 -172 0
257 -254 -169 172 0
-257 254 169 -172 0
-257 254 -169 172 0
257 254 -256 169 172 -170 0
257 254 -256 -169 -172 -170 0
-257 -254 -256 169 172 -170 0
-257 -254 -256 -169 -172 -170 0
259 256 -169 0
259 -256 169 0
-259 256 169 0
-259 -256 -169 0
258 172 -170 0
258 -172 170 0
-258 172 170 0
-258 -172 -170 0
260 -257 259 0
260 -257 168 0
-260 257 259 0
-260 257 168 0
260 -257 167 -170 0
260 -257 -167 170 0
-260 257 167 -170 0
-260 257 -167 170 0
260 257 -259 167 170 -168 0
260 257 -259 -167 -170 -168 0
-260 -257 -259 167 170 -168 0
-260 -257 -259 -167 -170 -168 0
262 259 -167 0
262 -259 167 0
-262 259 167 0
-262 -259 -167 0
261 170 -168 0
261 -170 168 0
-261 170 168 0
-261 -170 -168 0
263 -260 262 0
263 -260 166 0
-263 260 262 0
-263 260 166 0
263 -260 165 -168 0
263 -260 -165 168 0
-263 260 165 -168 0
-263 260 -165 168 0
263 260 -262 165 168 -166 0
263 260 -262 -165 -168 -166 0
-263 -260 -262 165 168 -166 0
-263 -260 -262 -165 -168 -166 0
265 262 -165 0
265 -262 165 0
-265 262 165 0
-265 -262 -165 0
264 168 -166 0
264 -168 166 0
-264 168 166 0
-264 -168 -166 0
266 -263 265 0
266 -263 164 0
-266 263 265 0
-266 263 164 0
266 -263 163 -166 0
266 -263 -163 166 0
-266 263 163 -166 0
-266 263 -163 166 0
266 263 -265 163 166 -164 0
266 263 -265 -163 -166 -164 0
-266 -263 -265 163 166 -164 0
-266 -263 -265 -163 -166 -164 0
268 265 -163 0
268 -265 163 0
-268 265 163 0
-268 -265 -163 0
267 166 -164 0
267 -166 164 0
-267 166 164 0
-267 -166 -164 0
269 -266 268 0
269 -266 162 0
-269 266 268 0
-269 266 162 0
269 -266 161 -164 0
269 -266 -161 164 0
-269 266 161 -164 0
-269 266 -161 164 0
269 266 -268 161 164 -162 0
269 266 -268 -161 -164 -162 0
-269 -266 -268 161 164 -162 0
-269 -266 -268 -161 -164 -162 0
271 268 -161 0
271 -268 161 0
-271 268 161 0
-271 -268 -161 0
270 164 -162 0
270 -164 162 0
-270 164 162 0
-270 -164 -162 0
272 -269 271 0
272 -269 160 0
-272 269 271 0
-272 269 160 0
272 -269 159 -162 0
272 -269 -159 162 0
-272 269 159 -162 0
-272 269 -159 162 0
272 269 -271 159 162 -160 0
272 269 -271 -159 -162 -160 0
-272 -269 -271 159 162 -160 0
-272 -269 -271 -159 -162 -160 0
274 271 -159 0
274 -271 159 0
-274 271 159 0
-274 -271 -159 0
273 162 -160 0
273 -162 160 0
-273 162 160 0
-273 -162 -160 0
275 -272 274 0
275 -272 158 0
-275 272 274 0
-275 272 158 0
275 -272 157 -160 0
275 -272 -157 160 0
-275 272 157 -160 0
-275 272 -157 160 0
275 272 -274 157 160 -158 0
275 272 -274 -157 -160 -158 0
-275 -272 -274 157 160 -158 0
-275 -272 -274 -157 -160 -158 0
277 274 -157 0
277 -274 157 0
-277 274 157 0
-277 -274 -157 0
276 160 -158 0
276 -160 158 0
-276 160 158 0
-276 -160 -158 0
278 -275 277 0
278 -275 156 0
-278 275 277 0
-278 275 156 0
278 -275 155 -158 0
278 -275 -155 158 0
-278 275 155 -158 0
-278 275 -155 158 0
278 275 -277 155 158 -156 0
278 275 -277 -155 -158 -156 0
-278 -275 -277 155 158 -156 0
-278 -275 -277 -155 -158 -156 0
280 277 -155 0
280 -277 155 0
-280 277 155 0
-280 -277 -155 0
279 158 -156 0
279 -158 156 0
-279 158 156 0
-279 -158 -156 0
281 -278 280 0
281 -278 154 0
-281 278 280 0
-281 278 154 0
281 -278 153 -156 0
281 -278 -153 156 0
-281 278 153 -156 0
-281 278 -153 156 0
281 278 -280 153 156 -154 0
281 278 -280 -153 -156 -154 0
-281 -278 -280 153 156 -154 0
-281 -278 -280 -153 -156 -154 0
283 280 -153 0
283 -280 153 0
-283 280 153 0
-283 -280 -153 0
282 156 -154 0
282 -156 154 0
-282 156 154 0
-282 -156 -154 0
284 -281 283 0
284 -281 152 0
-284 281 283 0
-284 281 152 0
284 -281 151 -154 0
284 -281 -151 154 0
-284 281 151 -154 0
-284 281 -151 154 0
284 281 -283 151 154 -152 0
284 281 -283 -151 -154 -152 0
-284 -281 -283 151 154 -152 0
-284 -281 -283 -151 -154 -152 0
286 283 -151 0
286 -283 151 0
-286 283 151 0
-286 -283 -151 0
285 154 -152 0
285 -154 152 0
-285 154 152 0
-285 -154 -152 0
287 -284 286 0
287 -284 150 0
-287 284 286 0
-287 284 150 0
287 -284 149 -152 0
287 -284 -149 152 0
-287 284 149 -152 0
-287 284 -149 152 0
287 284 -286 149 152 -150 0
287 284 -286 -149 -152 -150 0
-287 -284 -286 149 152 -150 0
-287 -284 -286 -149 -152 -150 0
289 286 -149 0
289 -286 149 0
-289 286 149 0
-289 -286 -149 0
288 152 -150 0
288 -152 150 0
-288 152 150 0
-288 -152 -150 0
290 -287 289 0
290 -287 148 0
-290 287 289 0
-290 287 148 0
290 -287 147 -150 0
290 -287 -147 150 0
-290 287 147 -150 0
-290 287 -147 150 0
290 287 -289 147 150 -148 0
290 287 -289 -147 -150 -148 0
-290 -287 -289 147 150 -148 0
-290 -287 -289 -147 -150 -148 0
292 289 -147 0
292 -289 147 0
-292 289 147 0
-292 -289 -147 0
291 150 -148 0
291 -150 148 0
-291 150 148 0
-291 -150 -148 0
293 -290 292 0
293 -290 146 0
-293 290 292 0
-293 290 146 0
293 -290 145 -148 0
293 -290 -145 148 0
-293 290 145 -148 0
-293 290 -145 148 0
293 290 -292 145 148 -146 0
293 290 -292 -145 -148 -146 0
-293 -290 -292 145 148 -146 0
-293 -290 -292 -145 -148 -146 0
295 292 -145 0
295 -292 145 0
-295 292 145 0
-295 -292 -145 0
294 148 -146 0
294 -148 146 0
-294 148 146 0
-294 -148 -146 0
296 -293 295 0
296 -293 144 0
-296 293 295 0
-296 293 144 0
296 -293 143 -146 0
296 -293 -143 146 0
-296 293 143 -146 0
-296 293 -143 146 0
296 293 -295 143 146 -144 0
296 293 -295 -143 -146 -144 0
-296 -293 -295 143 146 -144 0
-296 -293 -295 -143 -146 -144 0
298 295 -143 0
298 -295 143 0
-298 295 143 0
-298 -295 -143 0
297 146 -144 0
297 -146 144 0
-297 146 144 0
-297 -146 -144 0
299 -296 298 0
299 -296 142 0
-299 296 298 0
-299 296 142 0
299 -296 141 -144 0
299 -296 -141 144 0
-299 296 141 -144 0
-299 296 -141 144 0
299 296 -298 141 144 -142 0
299 296 -298 -141 -144 -142 0
-299 -296 -298 141 144 -142 0
-299 -296 -298 -141 -144 -142 0
301 298 -141 0
301 -298 141 0
-301 298 141 0
-301 -298 -141 0
300 144 -142 0
300 -144 142 0
-300 144 142 0
-300 -144 -142 0
302 -299 301 0
302 -299 140 0
-302 299 301 0
-302 299 140 0
302 -299 139 -142 0
302 -299 -139 142 0
-302 299 139 -142 0
-302 299 -139 142 0
302 299 -301 139 142 -140 0
302 299 -301 -139 -142 -140 0
-302 -299 -301 139 142 -140 0
-302 -299 -301 -139 -142 -140 0
304 301 -139 0
304 -301 139 0
-304 301 139 0
-304 -301 -139 0
303 142 -140 0
303 -142 140 0
-303 142 140 0
-303 -142 -140 0
305 -302 304 0
305 -302 138 0
-305 302 304 0
-305 302 138 0
305 -302 137 -140 0
305 -302 -137 140 0
-305 302 137 -140 0
-305 302 -137 140 0
305 302 -304 137 140 -138 0
305 302 -304 -137 -140 -138 0
-305 -302 -304 137 140 -138 0
-305 -302 -304 -137 -140 -138 0
307 304 -137 0
307 -304 137 0
-307 304 137 0
-307 -304 -137 0
306 140 -138 0
306 -140 138 0
-306 140 138 0
-306 -140 -138 0
308 -305 307 0
308 -305 136 0
-308 305 307 0
-308 305 136 0
308 -305 135 -138 0
308 -305 -135 138 0
-308 305 135 -138 0
-308 305 -135 138 0
308 305 -307 135 138 -136 0
308 305 -307 -135 -138 -136 0
-308 -305 -307 135 138 -136 0
-308 -305 -307 -135 -138 -136 0
310 307 -135 0
310 -307 135 0
-310 307 135 0
-310 -307 -135 0
309 138 -136 0
309 -138 136 0
-309 138 136 0
-309 -138 -136 0
311 -308 310 0
311 -308 134 0
-311 308 310 0
-311 308 134 0
311 -308 133 -136 0
311 -308 -133 136 0
-311 308 133 -136 0
-311 308 -133 136 0
311 308 -310 133 136 -134 0
311 308 -310 -133 -136 -134 0
-311 -308 -310 133 136 -134 0
-311 -308 -310 -133 -136 -134 0
313 310 -133 0
313 -310 133 0
-313 310 133 0
-313 -310 -133 0
312 136 -134 0
312 -136 134 0
-312 136 134 0
-312 -136 -134 0
314 -311 313 0
314 -311 132 0
-314 311 313 0
-314 311 132 0
314 -311 131 -134 0
314 -311 -131 134 0
-314 311 131 -134 0
-314 311 -131 134 0
314 311 -313 131 134 -132 0
314 311 -313 -131 -134 -132 0
-314 -311 -313 131 134 -132 0
-314 -311 -313 -131 -134 -132 0
316 313 -131 0
316 -313 131 0
-316 313 131 0
-316 -313 -131 0
315 134 -132 0
315 -134 132 0
-315 134 132 0
-315 -134 -132 0
317 -314 316 0
317 -314 130 0
-317 314 316 0
-317 314 130 0
317 -314 129 -132 0
317 -314 -129 132 0
-317 314 129 -132 0
-317 314 -129 132 0
317 314 -316 129 132 -130 0
317 314 -316 -129 -132 -130 0
-317 -314 -316 129 132 -130 0
-317 -314 -316 -129 -132 -130 0
319 316 -129 0
319 -316 129 0
-319 316 129 0
-319 -316 -129 0
318 132 -130 0
318 -132 130 0
-318 132 130 0
-318 -132 -130 0
320 -317 319 0
320 -317 128 0
-320 317 319 0
-320 317 128 0
320 -317 127 -130 0
320 -317 -127 130 0
-320 317 127 -130 0
-320 317 -127 130 0
320 317 -319 127 130 -128 0
320 317 -319 -127 -130 -128 0
-320 -317 -319 127 130 -128 0
-320 -317 -319 -127 -130 -128 0
322 319 -127 0
322 -319 127 0
-322 319 127 0
-322 -319 -127 0
321 130 -128 0
321 -130 128 0
-321 130 128 0
-321 -130 -128 0
323 -320 322 0
323 -320 126 0
-323 320 322 0
-323 320 126 0
323 -320 125 -128 0
323 -320 -125 128 0
-323 320 125 -128 0
-323 320 -125 128 0
323 320 -322 125 128 -126 0
323 320 -322 -125 -128 -126 0
-323 -320 -322 125 128 -126 0
-323 -320 -322 -125 -128 -126 0
325 322 -125 0
325 -322 125 0
-325 322 125 0
-325 -322 -125 0
324 128 -126 0
324 -128 126 0
-324 128 126 0
-324 -128 -126 0
326 -323 325 0
326 -323 124 0
-326 323 325 0
-326 323 124 0
326 -323 123 -126 0
326 -323 -123 126 0
-326 323 123 -126 0
-326 323 -123 126 0
326 323 -325 123 126 -124 0
326 323 -325 -123 -126 -124 0
-326 -323 -325 123 126 -124 0
-326 -323 -325 -123 -126 -124 0
328 325 -123 0
328 -325 123 0
-328 325 123 0
-328 -325 -123 0
327 126 -124 0
327 -126 124 0
-327 126 124 0
-327 -126 -124 0
329 -326 328 0
329 -326 122 0
-329 326 328 0
-329 326 122 0
329 -326 121 -124 0
329 -326 -121 124 0
-329 326 121 -124 0
-329 326 -121 124 0
329 326 -328 121 124 -122 0
329 326 -328 -121 -124 -122 0
-329 -326 -328 121 124 -122 0
-329 -326 -328 -121 -124 -122 0
331 328 -121 0
331 -328 121 0
-331 328 121 0
-331 -328 -121 0
330 124 -122 0
330 -124 122 0
-330 124 122 0
-330 -124 -122 0
332 -329 331 0
332 -329 120 0
-332 329 331 0
-332 329 120 0
332 -329 119 -122 0
332 -329 -119 122 0
-332 329 119 -122 0
-332 329 -119 122 0
332 329 -331 119 122 -120 0
332 329 -331 -119 -122 -120 0
-332 -329 -331 119 122 -120 0
-332 -329 -331 -119 -122 -120 0
334 331 -119 0
334 -331 119 0
-334 331 119 0
-334 -331 -119 0
333 122 -120 0
333 -122 120 0
-333 122 120 0
-333 -122 -120 0
335 -332 334 0
335 -332 118 0
-335 332 334 0
-335 332 118 0
335 -332 117 -120 0
335 -332 -117 120 0
-335 332 117 -120 0
-335 332 -117 120 0
335 332 -334 117 120 -118 0
335 332 -334 -117 -120 -118 0
-335 -332 -334 117 120 -118 0
-335 -332 -334 -117 -120 -118 0
337 334 -117 0
337 -334 117 0
-337 334 117 0
-337 -334 -117 0
336 120 -118 0
336 -120 118 0
-336 120 118 0
-336 -120 -118 0
338 -335 337 0
338 -335 116 0
-338 335 337 0
-338 335 116 0
338 -335 115 -118 0
338 -335 -115 118 0
-338 335 115 -118 0
-338 335 -115 118 0
338 335 -337 115 118 -116 0
338 335 -337 -115 -118 -116 0
-338 -335 -337 115 118 -116 0
-338 -335 -337 -115 -118 -116 0
340 337 -115 0
340 -337 115 0
-340 337 115 0
-340 -337 -115 0
339 118 -116 0
339 -118 116 0
-339 118 116 0
-339 -118 -116 0
341 -338 340 0
341 -338 114 0
-341 338 340 0
-341 338 114 0
341 -338 113 -116 0
341 -338 -113 116 0
-341 338 113 -116 0
-341 338 -113 116 0
341 338 -340 113 116 -114 0
341 338 -340 -113 -116 -114 0
-341 -338 -340 113 116 -114 0
-341 -338 -340 -113 -116 -114 0
343 340 -113 0
343 -340 113 0
-343 340 113 0
-343 -340 -113 0
342 116 -114 0
342 -116 114 0
-342 116 114 0
-342 -116 -114 0
344 -341 343 0
344 -341 112 0
-344 341 343 0
-344 341 112 0
344 -341 111 -114 0
344 -341 -111 114 0
-344 341 111 -114 0
-344 341 -111 114 0
344 341 -343 111 114 -112 0
344 341 -343 -111 -114 -112 0
-344 -341 -343 111 114 -112 0
-344 -341 -343 -111 -114 -112 0
346 343 -111 0
346 -343 111 0
-346 343 111 0
-346 -343 -111 0
345 114 -112 0
345 -114 112 0
-345 114 112 0
-345 -114 -112 0
347 -344 346 0
347 -344 110 0
-347 344 346 0
-347 344 110 0
347 -344 109 -112 0
347 -344 -109 112 0
-347 344 109 -112 0
-347 344 -109 112 0
347 344 -346 109 112 -110 0
347 344 -346 -109 -112 -110 0
-347 -344 -346 109 112 -110 0
-347 -344 -346 -109 -112 -110 0
349 346 -109 0
349 -346 109 0
-349 346 109 0
-349 -346 -109 0
348 112 -110 0
348 -112 110 0
-348 112 110 0
-348 -112 -110 0
350 -347 349 0
350 -347 108 0
-350 347 349 0
-350 347 108 0
350 -347 107 -110 0
350 -347 -107 110 0
-350 347 107 -110 0
-350 347 -107 110 0
350 347 -349 107 110 -108 0
350 347 -349 -107 -110 -108 0
-350 -347 -349 107 110 -108 0
-350 -347 -349 -107 -110 -108 0
352 349 -107 0
352 -349 107 0
-352 349 107 0
-352 -349 -107 0
351 110 -108 0
351 -110 108 0
-351 110 108 0
-351 -110 -108 0
353 -350 352 0
353 -350 106 0
-353 350 352 0
-353 350 106 0
353 -350 105 -108 0
353 -350 -105 108 0
-353 350 105 -108 0
-353 350 -105 108 0
353 350 -352 105 108 -106 0
353 350 -352 -105 -108 -106 0
-353 -350 -352 105 108 -106 0
-353 -350 -352 -105 -108 -106 0
355 352 -105 0
355 -352 105 0
-355 352 105 0
-355 -352 -105 0
354 108 -106 0
354 -108 106 0
-354 108 106 0
-354 -108 -106 0
356 -353 355 0
356 -353 104 0
-356 353 355 0
-356 353 104 0
356 -353 103 -106 0
356 -353 -103 106 0
-356 353 103 -106 0
-356 353 -103 106 0
356 353 -355 103 106 -104 0
356 353 -355 -103 -106 -104 0
-356 -353 -355 103 106 -104 0
-356 -353 -355 -103 -106 -104 0
358 355 -103 0
358 -355 103 0
-358 355 103 0
-358 -355 -103 0
357 106 -104 0
357 -106 104 0
-357 106 104 0
-357 -106 -104 0
359 -356 358 0
359 -356 102 0
-359 356 358 0
-359 356 102 0
359 -356 101 -104 0
359 -356 -101 104 0
-359 356 101 -104 0
-359 356 -101 104 0
359 356 -358 101 104 -102 0
359 356 -358 -101 -104 -102 0
-359 -356 -358 101 104 -102 0
-359 -356 -358 -101 -104 -102 0
361 358 -101 0
361 -358 101 0
-361 358 101 0
-361 -358 -101 0
360 104 -102 0
360 -104 102 0
-360 104 102 0
-360 -104 -102 0
362 -359 361 0
362 -359 100 0
-362 359 361 0
-362 359 100 0
362 -359 99 -102 0
362 -359 -99 102 0
-362 359 99 -102 0
-362 359 -99 102 0
362 359 -361 99 102 -100 0
362 359 -361 -99 -102 -100 0
-362 -359 -361 99 102 -100 0
-362 -359 -361 -99 -102 -100 0
364 361 -99 0
364 -361 99 0
-364 361 99 0
-364 -361 -99 0
363 102 -100 0
363 -102 100 0
-363 102 100 0
-363 -102 -100 0
365 -362 364 0
365 -362 98 0
-365 362 364 0
-365 362 98 0
365 -362 97 -100 0
365 -362 -97 100 0
-365 362 97 -100 0
-365 362 -97 100 0
365 362 -364 97 100 -98 0
365 362 -364 -97 -100 -98 0
-365 -362 -364 97 100 -98 0
-365 -362 -364 -97 -100 -98 0
367 364 -97 0
367 -364 97 0
-367 364 97 0
-367 -364 -97 0
366 100 -98 0
366 -100 98 0
-366 100 98 0
-366 -100 -98 0
368 -365 367 0
368 -365 96 0
-368 365 367 0
-368 365 96 0
368 -365 95 -98 0
368 -365 -95 98 0
-368 365 95 -98 0
-368 365 -95 98 0
368 365 -367 95 98 -96 0
368 365 -367 -95 -98 -96 0
-368 -365 -367 95 98 -96 0
-368 -365 -367 -95 -98 -96 0
370 367 -95 0
370 -367 95 0
-370 367 95 0
-370 -367 -95 0
369 98 -96 0
369 -98 96 0
-369 98 96 0
-369 -98 -96 0
371 -368 370 0
371 -368 94 0
-371 368 370 0
-371 368 94 0
371 -368 93 -96 0
371 -368 -93 96 0
-371 368 93 -96 0
-371 368 -93 96 0
371 368 -370 93 96 -94 0
371 368 -370 -93 -96 -94 0
-371 -368 -370 93 96 -94 0
-371 -368 -370 -93 -96 -94 0
373 370 -93 0
373 -370 93 0
-373 370 93 0
-373 -370 -93 0
372 96 -94 0
372 -96 94 0
-372 96 94 0
-372 -96 -94 0
374 -371 373 0
374 -371 92 0
-374 371 373 0
-374 371 92 0
374 -371 91 -94 0
374 -371 -91 94 0
-374 371 91 -94 0
-374 371 -91 94 0
374 371 -373 91 94 -92 0
374 371 -373 -91 -94 -92 0
-374 -371 -373 91 94 -92 0
-374 -371 -373 -91 -94 -92 0
376 373 -91 0
376 -373 91 0
-376 373 91 0
-376 -373 -91 0
375 94 -92 0
375 -94 92 0
-375 94 92 0
-375 -94 -92 0
377 -374 376 0
377 -374 90 0
-377 374 376 0
-377 374 90 0
377 -374 89 -92 0
377 -374 -89 92 0
-377 374 89 -92 0
-377 374 -89 92 0
377 374 -376 89 92 -90 0
377 374 -376 -89 -92 -90 0
-377 -374 -376 89 92 -90 0
-377 -374 -376 -89 -92 -90 0
379 376 -89 0
379 -376 89 0
-379 376 89 0
-379 -376 -89 0
378 92 -90 0
378 -92 90 0
-378 92 90 0
-378 -92 -90 0
380 -377 379 0
380 -377 88 0
-380 377 379 0
-380 377 88 0
380 -377 87 -90 0
380 -377 -87 90 0
-380 377 87 -90 0
-380 377 -87 90 0
380 377 -379 87 90 -88 0
380 377 -379 -87 -90 -88 0
-380 -377 -379 87 90 -88 0
-380 -377 -379 -87 -90 -88 0
382 379 -87 0
382 -379 87 0
-382 379 87 0
-382 -379 -87 0
381 90 -88 0
381 -90 88 0
-381 90 88 0
-381 -90 -88 0
383 -380 382 0
383 -380 86 0
-383 380 382 0
-383 380 86 0
383 -380 85 -88 0
383 -380 -85 88 0
-383 380 85 -88 0
-383 380 -85 88 0
383 380 -382 85 88 -86 0
383 380 -382 -85 -88 -86 0
-383 -380 -382 85 88 -86 0
-383 -380 -382 -85 -88 -86 0
385 382 -85 0
385 -382 85 0
-385 382 85 0
-385 -382 -85 0
384 88 -86 0
384 -88 86 0
-384 88 86 0
-384 -88 -86 0
386 -383 385 0
386 -383 84 0
-386 383 385 0
-386 383 84 0
386 -383 83 -86 0
386 -383 -83 86 0
-386 383 83 -86 0
-386 383 -83 86 0
386 383 -385 83 86 -84 0
386 383 -385 -83 -86 -84 0
-386 -383 -385 83 86 -84 0
-386 -383 -385 -83 -86 -84 0
388 385 -83 0
388 -385 83 0
-388 385 83 0
-388 -385 -83 0
387 86 -84 0
387 -86 84 0
-387 86 84 0
-387 -86 -84 0
389 -386 388 0
389 -386 82 0
-389 386 388 0
-389 386 82 0
389 -386 81 -84 0
389 -386 -81 84 0
-389 386 81 -84 0
-389 386 -81 84 0
389 386 -388 81 84 -82 0
389 386 -388 -81 -84 -82 0
-389 -386 -388 81 84 -82 0
-389 -386 -388 -81 -84 -82 0
391 388 -81 0
391 -388 81 0
-391 388 81 0
-391 -388 -81 0
390 84 -82 0
390 -84 82 0
-390 84 82 0
-390 -84 -82 0
392 -389 391 0
392 -389 80 0
-392 389 391 0
-392 389 80 0
392 -389 79 -82 0
392 -389 -79 82 0
-392 389 79 -82 0
-392 389 -79 82 0
392 389 -391 79 82 -80 0
392 389 -391 -79 -82 -80 0
-392 -389 -391 79 82 -80 0
-392 -389 -391 -79 -82 -80 0
394 391 -79 0
394 -391 79 0
-394 391 79 0
-394 -391 -79 0
393 82 -80 0
393 -82 80 0
-393 82 80 0
-393 -82 -80 0
395 -392 394 0
395 -392 78 0
-395 392 394 0
-395 392 78 0
395 -392 77 -80 0
395 -392 -77 80 0
-395 392 77 -80 0
-395 392 -77 80 0
395 392 -394 77 80 -78 0
395 392 -394 -77 -80 -78 0
-395 -392 -394 77 80 -78 0
-395 -392 -394 -77 -80 -78 0
397 394 -77 0
397 -394 77 0
-397 394 77 0
-397 -394 -77 0
396 80 -78 0
396 -80 78 0
-396 80 78 0
-396 -80 -78 0
398 -395 397 0
398 -395 76 0
-398 395 397 0
-398 395 76 0
398 -395 75 -78 0
398 -395 -75 78 0
-398 395 75 -78 0
-398 395 -75 78 0
398 395 -397 75 78 -76 0
398 395 -397 -75 -78 -76 0
-398 -395 -397 75 78 -76 0
-398 -395 -397 -75 -78 -76 0
400 397 -75 0
400 -397 75 0
-400 397 75 0
-400 -397 -75 0
399 78 -76 0
399 -78 76 0
-399 78 76 0
-399 -78 -76 0
401 -398 400 0
401 -398 74 0
-401 398 400 0
-401 398 74 0
401 -398 73 -76 0
401 -398 -73 76 0
-401 398 73 -76 0
-401 398 -73 76 0
401 398 -400 73 76 -74 0
401 398 -400 -73 -76 -74 0
-401 -398 -400 73 76 -74 0
-401 -398 -400 -73 -76 -74 0
403 400 -73 0
403 -400 73 0
-403 400 73 0
-403 -400 -73 0
402 76 -74 0
402 -76 74 0
-402 76 74 0
-402 -76 -74 0
404 -401 403 0
404 -401 72 0
-404 401 403 0
-404 401 72 0
404 -401 71 -74 0
404 -401 -71 74 0
-404 401 71 -74 0
-404 401 -71 74 0
404 401 -403 71 74 -72 0
404 401 -403 -71 -74 -72 0
-404 -401 -403 71 74 -72 0
-404 -401 -403 -71 -74 -72 0
406 403 -71 0
406 -403 71 0
-406 403 71 0
-406 -403 -71 0
405 74 -72 0
405 -74 72 0
-405 74 72 0
-405 -74 -72 0
407 -404 406 0
407 -404 70 0
-407 404 406 0
-407 404 70 0
407 -404 69 -72 0
407 -404 -69 72 0
-407 404 69 -72 0
-407 404 -69 72 0
407 404 -406 69 72 -70 0
407 404 -406 -69 -72 -70 0
-407 -404 -406 69 72 -70 0
-407 -404 -406 -69 -72 -70 0
409 406 -69 0
409 -406 69 0
-409 406 69 0
-409 -406 -69 0
408 72 -70 0
408 -72 70 0
-408 72 70 0
-408 -72 -70 0
410 -407 409 0
410 -407 68 0
-410 407 409 0
-410 407 68 0
410 -407 67 -70 0
410 -407 -67 70 0
-410 407 67 -70 0
-410 407 -67 70 0
410 407 -409 67 70 -68 0
410 407 -409 -67 -70 -68 0
-410 -407 -409 67 70 -68 0
-410 -407 -409 -67 -70 -68 0
412 409 -67 0
412 -409 67 0
-412 409 67 0
-412 -409 -67 0
411 70 -68 0
411 -70 68 0
-411 70 68 0
-411 -70 -68 0
413 -410 412 0
413 -410 66 0
-413 410 412 0
-413 410 66 0
413 -410 65 -68 0
413 -410 -65 68 0
-413 410 65 -68 0
-413 410 -65 68 0
413 410 -412 65 68 -66 0
413 410 -412 -65 -68 -66 0
-413 -410 -412 65 68 -66 0
-413 -410 -412 -65 -68 -66 0
415 412 -65 0
415 -412 65 0
-415 412 65 0
-415 -412 -65 0
414 68 -66 0
414 -68 66 0
-414 68 66 0
-414 -68 -66 0
416 -413 415 0
416 -413 64 0
-416 413 415 0
-416 413 64 0
416 -413 63 -66 0
416 -413 -63 66 0
-416 413 63 -66 0
-416 413 -63 66 0
416 413 -415 63 66 -64 0
416 413 -415 -63 -66 -64 0
-416 -413 -415 63 66 -64 0
-416 -413 -415 -63 -66 -64 0
418 415 -63 0
418 -415 63 0
-418 415 63 0
-418 -415 -63 0
417 66 -64 0
417 -66 64 0
-417 66 64 0
-417 -66 -64 0
419 -416 418 0
419 -416 62 0
-419 416 418 0
-419 416 62 0
419 -416 61 -64 0
419 -416 -61 64 0
-419 416 61 -64 0
-419 416 -61 64 0
419 416 -418 61 64 -62 0
419 416 -418 -61 -64 -62 0
-419 -416 -418 61 64 -62 0
-419 -416 -418 -61 -64 -62 0
421 418 -61 0
421 -418 61 0
-421 418 61 0
-421 -418 -61 0
420 64 -62 0
420 -64 62 0
-420 64 62 0
-420 -64 -62 0
422 -419 421 0
422 -419 60 0
-422 419 421 0
-422 419 60 0
422 -419 59 -62 0
422 -419 -59 62 0
-422 419 59 -62 0
-422 419 -59 62 0
422 419 -421 59 62 -60 0
422 419 -421 -59 -62 -60 0
-422 -419 -421 59 62 -60 0
-422 -419 -421 -59 -62 -60 0
424 421 -59 0
424 -421 59 0
-424 421 59 0
-424 -421 -59 0
423 62 -60 0
423 -62 60 0
-423 62 60 0
-423 -62 -60 0
425 -422 424 0
425 -422 58 0
-425 422 424 0
-425 422 58 0
425 -422 57 -60 0
425 -422 -57 60 0
-425 422 57 -60 0
-425 422 -57 60 0
425 422 -424 57 60 -58 0
425 422 -424 -57 -60 -58 0
-425 -422 -424 57 60 -58 0
-425 -422 -424 -57 -60 -58 0
427 424 -57 0
427 -424 57 0
-427 424 57 0
-427 -424 -57 0
426 60 -58 0
426 -60 58 0
-426 60 58 0
-426 -60 -58 0
428 -425 427 0
428 -425 56 0
-428 425 427 0
-428 425 56 0
428 -425 55 -58 0
428 -425 -55 58 0
-428 425 55 -58 0
-428 425 -55 58 0
428 425 -427 55 58 -56 0
428 425 -427 -55 -58 -56 0
-428 -425 -427 55 58 -56 0
-428 -425 -427 -55 -58 -56 0
430 427 -55 0
430 -427 55 0
-430 427 55 0
-430 -427 -55 0
429 58 -56 0
429 -58 56 0
-429 58 56 0
-429 -58 -56 0
431 -428 430 0
431 -428 54 0
-431 428 430 0
-431 428 54 0
431 -428 53 -56 0
431 -428 -53 56 0
-431 428 53 -56 0
-431 428 -53 56 0
431 428 -430 53 56 -54 0
431 428 -430 -53 -56 -54 0
-431 -428 -430 53 56 -54 0
-431 -428 -430 -53 -56 -54 0
433 430 -53 0
433 -430 53 0
-433 430 53 0
-433 -430 -53 0
432 56 -54 0
432 -56 54 0
-432 56 54 0
-432 -56 -54 0
434 -431 433 0
434 -431 52 0
-434 431 433 0
-434 431 52 0
434 -431 51 -54 0
434 -431 -51 54 0
-434 431 51 -54 0
-434 431 -51 54 0
434 431 -433 51 54 -52 0
434 431 -433 -51 -54 -52 0
-434 -431 -433 51 54 -52 0
-434 -431 -433 -51 -54 -52 0
436 433 -51 0
436 -433 51 0
-436 433 51 0
-436 -433 -51 0
435 54 -52 0
435 -54 52 0
-435 54 52 0
-435 -54 -52 0
437 -434 436 0
437 -434 50 0
-437 434 436 0
-437 434 50 0
437 -434 49 -52 0
437 -434 -49 52 0
-437 434 49 -52 0
-437 434 -49 52 0
437 434 -436 49 52 -50 0
437 434 -436 -49 -52 -50 0
-437 -434 -436 49 52 -50 0
-437 -434 -436 -49 -52 -50 0
439 436 -49 0
439 -436 49 0
-439 436 49 0
-439 -436 -49 0
438 52 -50 0
438 -52 50 0
-438 52 50 0
-438 -52 -50 0
440 -437 439 0
440 -437 48 0
-440 437 439 0
-440 437 48 0
440 -437 47 -50 0
440 -437 -47 50 0
-440 437 47 -50 0
-440 437 -47 50 0
440 437 -439 47 50 -48 0
440 437 -439 -47 -50 -48 0
-440 -437 -439 47 50 -48 0
-440 -437 -439 -47 -50 -48 0
442 439 -47 0
442 -439 47 0
-442 439 47 0
-442 -439 -47 0
441 50 -48 0
441 -50 48 0
-441 50 48 0
-441 -50 -48 0
443 -440 442 0
443 -440 46 0
-443 440 442 0
-443 440 46 0
443 -440 45 -48 0
443 -440 -45 48 0
-443 440 45 -48 0
-443 440 -45 48 0
443 440 -442 45 48 -46 0
443 440 -442 -45 -48 -46 0
-443 -440 -442 45 48 -46 0
-443 -440 -442 -45 -48 -46 0
445 442 -45 0
445 -442 45 0
-445 442 45 0
-445 -442 -45 0
444 48 -46 0
444 -48 46 0
-444 48 46 0
-444 -48 -46 0
446 -443 445 0
446 -443 44 0
-446 443 445 0
-446 443 44 0
446 -443 43 -46 0
446 -443 -43 46 0
-446 443 43 -46 0
-446 443 -43 46 0
446 443 -445 43 46 -44 0
446 443 -445 -43 -46 -44 0
-446 -443 -445 43 46 -44 0
-446 -443 -445 -43 -46 -44 0
448 445 -43 0
448 -445 43 0
-448 445 43 0
-448 -445 -43 0
447 46 -44 0
447 -46 44 0
-447 46 44 0
-447 -46 -44 0
449 -446 448 0
449 -446 42 0
-449 446 448 0
-449 446 42 0
449 -446 41 -44 0
449 -446 -41 44 0
-449 446 41 -44 0
-449 446 -41 44 0
449 446 -448 41 44 -42 0
449 446 -448 -41 -44 -42 0
-449 -446 -448 41 44 -42 0
-449 -446 -448 -41 -44 -42 0
451 448 -41 0
451 -448 41 0
-451 448 41 0
-451 -448 -41 0
450 44 -42 0
450 -44 42 0
-450 44 42 0
-450 -44 -42 0
452 -449 451 0
452 -449 40 0
-452 449 451 0
-452 449 40 0
452 -449 39 -42 0
452 -449 -39 42 0
-452 449 39 -42 0
-452 449 -39 42 0
452 449 -451 39 42 -40 0
452 449 -451 -39 -42 -40 0
-452 -449 -451 39 42 -40 0
-452 -449 -451 -39 -42 -40 0
454 451 -39 0
454 -451 39 0
-454 451 39 0
-454 -451 -39 0
453 42 -40 0
453 -42 40 0
-453 42 40 0
-453 -42 -40 0
455 -452 454 0
455 -452 38 0
-455 452 454 0
-455 452 38 0
455 -452 37 -40 0
455 -452 -37 40 0
-455 452 37 -40 0
-455 452 -37 40 0
455 452 -454 37 40 -38 0
455 452 -454 -37 -40 -38 0
-455 -452 -454 37 40 -38 0
-455 -452 -454 -37 -40 -38 0
457 454 -37 0
457 -454 37 0
-457 454 37 0
-457 -454 -37 0
456 40 -38 0
456 -40 38 0
-456 40 38 0
-456 -40 -38 0
458 -455 457 0
458 -455 36 0
-458 455 457 0
-458 455 36 0
458 -455 35 -38 0
458 -455 -35 38 0
-458 455 35 -38 0
-458 455 -35 38 0
458 455 -457 35 38 -36 0
458 455 -457 -35 -38 -36 0
-458 -455 -457 35 38 -36 0
-458 -455 -457 -35 -38 -36 0
460 457 -35 0
460 -457 35 0
-460 457 35 0
-460 -457 -35 0
459 38 -36 0
459 -38 36 0
-459 38 36 0
-459 -38 -36 0
461 -458 460 0
461 -458 34 0
-461 458 460 0
-461 458 34 0
461 -458 33 -36 0
461 -458 -33 36 0
-461 458 33 -36 0
-461 458 -33 36 0
461 458 -460 33 36 -34 0
461 458 -460 -33 -36 -34 0
-461 -458 -460 33 36 -34 0
-461 -458 -460 -33 -36 -34 0
463 460 -33 0
463 -460 33 0
-463 460 33 0
-463 -460 -33 0
462 36 -34 0
462 -36 34 0
-462 36 34 0
-462 -36 -34 0
464 -461 463 0
464 -461 32 0
-464 461 463 0
-464 461 32 0
464 -461 31 -34 0
464 -461 -31 34 0
-464 461 31 -34 0
-464 461 -31 34 0
464 461 -463 31 34 -32 0
464 461 -463 -31 -34 -32 0
-464 -461 -463 31 34 -32 0
-464 -461 -463 -31 -34 -32 0
466 463 -31 0
466 -463 31 0
-466 463 31 0
-466 -463 -31 0
465 34 -32 0
465 -34 32 0
-465 34 32 0
-465 -34 -32 0
467 -464 466 0
467 -464 30 0
-467 464 466 0
-467 464 30 0
467 -464 29 -32 0
467 -464 -29 32 0
-467 464 29 -32 0
-467 464 -29 32 0
467 464 -466 29 32 -30 0
467 464 -466 -29 -32 -30 0
-467 -464 -466 29 32 -30 0
-467 -464 -466 -29 -32 -30 0
469 466 -29 0
469 -466 29 0
-469 466 29 0
-469 -466 -29 0
468 32 -30 0
468 -32 30 0
-468 32 30 0
-468 -32 -30 0
470 -467 469 0
470 -467 28 0
-470 467 469 0
-470 467 28 0
470 -467 27 -30 0
470 -467 -27 30 0
-470 467 27 -30 0
-470 467 -27 30 0
470 467 -469 27 30 -28 0
470 467 -469 -27 -30 -28 0
-470 -467 -469 27 30 -28 0
-470 -467 -469 -27 -30 -28 0
472 469 -27 0
472 -469 27 0
-472 469 27 0
-472 -469 -27 0
471 30 -28 0
471 -30 28 0
-471 30 28 0
-471 -30 -28 0
473 -470 472 0
473 -470 26 0
-473 470 472 0
-473 470 26 0
473 -470 25 -28 0
473 -470 -25 28 0
-473 470 25 -28 0
-473 470 -25 28 0
473 470 -472 25 28 -26 0
473 470 -472 -25 -28 -26 0
-473 -470 -472 25 28 -26 0
-473 -470 -472 -25 -28 -26 0
475 472 -25 0
475 -472 25 0
-475 472 25 0
-475 -472 -25 0
474 28 -26 0
474 -28 26 0
-474 28 26 0
-474 -28 -26 0
476 -473 475 0
476 -473 24 0
-476 473 475 0
-476 473 24 0
476 -473 23 -26 0
476 -473 -23 26 0
-476 473 23 -26 0
-476 473 -23 26 0
476 473 -475 23 26 -24 0
476 473 -475 -23 -26 -24 0
-476 -473 -475 23 26 -24 0
-476 -473 -475 -23 -26 -24 0
478 475 -23 0
478 -475 23 0
-478 475 23 0
-478 -475 -23 0
477 26 -24 0
477 -26 24 0
-477 26 24 0
-477 -26 -24 0
479 -476 478 0
479 -476 22 0
-479 476 478 0
-479 476 22 0
479 -476 21 -24 0
479 -476 -21 24 0
-479 476 21 -24 0
-479 476 -21 24 0
479 476 -478 21 24 -22 0
479 476 -478 -21 -24 -22 0
-479 -476 -478 21 24 -22 0
-479 -476 -478 -21 -24 -22 0
481 478 -21 0
481 -478 21 0
-481 478 21 0
-481 -478 -21 0
480 24 -22 0
480 -24 22 0
-480 24 22 0
-480 -24 -22 0
482 -479 481 0
482 -479 20 0
-482 479 481 0
-482 479 20 0
482 -479 19 -22 0
482 -479 -19 22 0
-482 479 19 -22 0
-482 479 -19 22 0
482 479 -481 19 22 -20 0
482 479 -481 -19 -22 -20 0
-482 -479 -481 19 22 -20 0
-482 -479 -481 -19 -22 -20 0
484 481 -19 0
484 -481 19 0
-484 481 19 0
-484 -481 -19 0
483 22 -20 0
483 -22 20 0
-483 22 20 0
-483 -22 -20 0
485 -482 484 0
485 -482 18 0
-485 482 484 0
-485 482 18 0
485 -482 17 -20 0
485 -482 -17 20 0
-485 482 17 -20 0
-485 482 -17 20 0
485 482 -484 17 20 -18 0
485 482 -484 -17 -20 -18 0
-485 -482 -484 17 20 -18 0
-485 -482 -484 -17 -20 -18 0
487 484 -17 0
487 -484 17 0
-487 484 17 0
-487 -484 -17 0
486 20 -18 0
486 -20 18 0
-486 20 18 0
-486 -20 -18 0
488 -485 487 0
488 -485 16 0
-488 485 487 0
-488 485 16 0
488 -485 15 -18 0
488 -485 -15 18 0
-488 485 15 -18 0
-488 485 -15 18 0
488 485 -487 15 18 -16 0
488 485 -487 -15 -18 -16 0
-488 -485 -487 15 18 -16 0
-488 -485 -487 -15 -18 -16 0
490 487 -15 0
490 -487 15 0
-490 487 15 0
-490 -487 -15 0
489 18 -16 0
489 -18 16 0
-489 18 16 0
-489 -18 -16 0
491 -488 490 0
491 -488 14 0
-491 488 490 0
-491 488 14 0
491 -488 13 -16 0
491 -488 -13 16 0
-491 488 13 -16 0
-491 488 -13 16 0
491 488 -490 13 16 -14 0
491 488 -490 -13 -16 -14 0
-491 -488 -490 13 16 -14 0
-491 -488 -490 -13 -16 -14 0
493 490 -13 0
493 -490 13 0
-493 490 13 0
-493 -490 -13 0
492 16 -14 0
492 -16 14 0
-492 16 14 0
-492 -16 -14 0
494 -491 493 0
494 -491 12 0
-494 491 493 0
-494 491 12 0
494 -491 11 -14 0
494 -491 -11 14 0
-494 491 11 -14 0
-494 491 -11 14 0
494 491 -493 11 14 -12 0
494 491 -493 -11 -14 -12 0
-494 -491 -493 11 14 -12 0
-494 -491 -493 -11 -14 -12 0
496 493 -11 0
496 -493 11 0
-496 493 11 0
-496 -493 -11 0
495 14 -12 0
495 -14 12 0
-495 14 12 0
-495 -14 -12 0
497 -494 496 0
497 -494 10 0
-497 494 496 0
-497 494 10 0
497 -494 9 -12 0
497 -494 -9 12 0
-497 494 9 -12 0
-497 494 -9 12 0
497 494 -496 9 12 -10 0
497 494 -496 -9 -12 -10 0
-497 -494 -496 9 12 -10 0
-497 -494 -496 -9 -12 -10 0
499 496 -9 0
499 -496 9 0
-499 496 9 0
-499 -496 -9 0
498 12 -10 0
498 -12 10 0
-498 12 10 0
-498 -12 -10 0
500 -497 499 0
500 -497 8 0
-500 497 499 0
-500 497 8 0
500 -497 7 -10 0
500 -497 -7 10 0
-500 497 7 -10 0
-500 497 -7 10 0
500 497 -499 7 10 -8 0
500 497 -499 -7 -10 -8 0
-500 -497 -499 7 10 -8 0
-500 -497 -499 -7 -10 -8 0
502 499 -7 0
502 -499 7 0
-502 499 7 0
-502 -499 -7 0
501 10 -8 0
501 -10 8 0
-501 10 8 0
-501 -10 -8 0
503 -500 502 0
503 -500 6 0
-503 500 502 0
-503 500 6 0
503 -500 5 -8 0
503 -500 -5 8 0
-503 500 5 -8 0
-503 500 -5 8 0
503 500 -502 5 8 -6 0
503 500 -502 -5 -8 -6 0
-503 -500 -502 5 8 -6 0
-503 -500 -502 -5 -8 -6 0
505 502 -5 0
505 -502 5 0
-505 502 5 0
-505 -502 -5 0
504 8 -6 0
504 -8 6 0
-504 8 6 0
-504 -8 -6 0
506 -503 505 0
506 -503 4 0
-506 503 505 0
-506 503 4 0
506 -503 3 -6 0
506 -503 -3 6 0
-506 503 3 -6 0
-506 503 -3 6 0
506 503 -505 3 6 -4 0
506 503 -505 -3 -6 -4 0
-506 -503 -505 3 6 -4 0
-506 -503 -505 -3 -6 -4 0
508 505 -3 0
508 -505 3 0
-508 505 3 0
-508 -505 -3 0
507 6 -4 0
507 -6 4 0
-507 6 4 0
-507 -6 -4 0
509 -506 508 0
509 -506 2 0
-509 506 508 0
-509 506 2 0
509 -506 1 -4 0
509 -506 -1 4 0
-509 506 1 -4 0
-509 506 -1 4 0
509 506 -508 1 4 -2 0
509 506 -508 -1 -4 -2 0
-509 -506 -508 1 4 -2 0
-509 -506 -508 -1 -4 -2 0
511 508 -1 0
511 -508 1 0
-511 508 1 0
-511 -508 -1 0
510 4 -2 0
510 -4 2 0
-510 4 2 0
-510 -4 -2 0
-511 0
-508 0
-510 0
-505 0
-507 0
-502 0
-504 0
-499 0
-501 0
-496 0
-498 0
-493 0
-495 0
-490 0
-492 0
-487 0
-489 0
-484 0
-486 0
-481 0
-483 0
-478 0
-480 0
-475 0
-477 0
-472 0
-474 0
-469 0
-471 0
-466 0
-468 0
-463 0
-465 0
-460 0
-462 0
-457 0
-459 0
-454 0
-456 0
-451 0
-453 0
-448 0
-450 0
-445 0
-447 0
-442 0
-444 0
-439 0
-441 0
-436 0
-438 0
-433 0
-435 0
-430 0
-432 0
-427 0
-429 0
-424 0
-426 0
-421 0
-423 0
-418 0
-420 0
-415 0
-417 0
-412 0
-414 0
-409 0
-411 0
-406 0
-408 0
-403 0
-405 0
-400 0
-402 0
-397 0
-399 0
-394 0
-396 0
-391 0
-393 0
-388 0
-390 0
-385 0
-387 0
-382 0
-384 0
-379 0
-381 0
-376 0
-378 0
-373 0
-375 0
-370 0
-372 0
-367 0
-369 0
-364 0
-366 0
-361 0
-363 0
-358 0
-360 0
-355 0
-357 0
-352 0
-354 0
-349 0
-351 0
-346 0
-348 0
-343 0
-345 0
-340 0
-342 0
-337 0
-339 0
-334 0
-336 0
-331 0
-333 0
-328 0
-330 0
-325 0
-327 0
-322 0
-324 0
-319 0
-321 0
-316 0
-318 0
-313 0
-315 0
-310 0
-312 0
-307 0
-309 0
-304 0
-306 0
-301 0
-303 0
-298 0
-300 0
-295 0
-297 0
-292 0
-294 0
-289 0
-291 0
-286 0
-288 0
-283 0
-285 0
-280 0
-282 0
-277 0
-279 0
-274 0
-276 0
-271 0
-273 0
-268 0
-270 0
-265 0
-267 0
-262 0
-264 0
-259 0
-261 0
-256 0
-258 0
-253 0
-255 0
-250 0
-252 0
-247 0
-249 0
-244 0
-246 0
-241 0
-243 0
-238 0
-240 0
-235 0
-237 0
-232 0
-234 0
-229 0
-231 0
-226 0
-228 0
-223 0
-225 0
-220 0
-222 0
-217 0
-219 0
-214 0
-216 0
-207 0
-213 0
